20
Energy (Hartree): 
  O     0.09509781     1.18713693     3.22271696
  C     0.03868152     0.74695477     2.11253505
  C    -1.23384734     0.33164012     1.47398154
  C    -1.24058981    -0.19689008     0.24463020
  S    -2.77187642    -0.71394970    -0.48119619
  O    -3.86304761    -0.36044548     0.36670239
  O    -2.65595663    -2.05841595    -0.94371506
  O    -2.71717793     0.28731963    -1.73650760
  C    -0.05365493    -0.41635877    -0.54682170
  C     1.14348285    -0.05135482    -0.06445014
  S     2.60652533    -0.37420233    -1.03190632
  O     3.35020550    -1.39657130    -0.37253175
  O     2.22451093    -0.52285627    -2.39251149
  O     3.37546366     1.00884512    -0.90933678
  C     1.33173219     0.59583516     1.24455996
  O     2.38400028     1.01920156     1.63875741
  H    -2.14343694     0.46738286     2.04899228
  H    -3.48086565     0.20002565    -2.32086662
  H    -0.15587277    -0.87369079    -1.52546575
  H     3.76652597     1.12069370    -0.02746639
