29
Optimized merged molecule for atom pair (2, 1)
O -0.048827747917 -1.668351849157 -1.064392746309
H -0.566397102628 -1.432870928944 -1.847688801772
H -0.106020186854 -2.642665655593 -0.893841024786
C -3.4195403579916372 -3.3026354283395127 0.42745707651564535
C -2.0378643579916367 -3.3217934283395127 0.5403010765156453
C -1.3232003579916367 -2.1312194283395125 0.6725130765156453
C -2.017495357991637 -0.9195094283395127 0.6917580765156454
C -3.410808357991637 -0.9078824283395126 0.5872310765156453
C -4.111355357991636 -2.0930084283395125 0.4557770765156453
C 0.1785766420083632 -2.1903084283395127 0.8643590765156453
C -1.300574357991637 0.3825575716604874 0.7839220765156453
C 0.18484064200836303 0.3466705716604874 0.6809340765156453
C 0.8828006420083632 -0.8630364283395127 0.6693170765156453
C 2.271345642008363 -0.8450674283395125 0.5372650765156453
H 2.812228642008363 -1.7841274283395125 0.5297760765156453
C 2.9495446420083633 0.3576005716604873 0.41226407651564534
C 2.2516936420083633 1.5640505716604873 0.4270170765156453
C 0.8751986420083631 1.5557085716604875 0.5618240765156453
H -3.9627173579916373 -4.235097428339513 0.3212090765156453
H -1.4977573579916368 -4.261119428339512 0.5231240765156453
H -3.918453357991637 0.049172571660487385 0.6073040765156453
H -5.191902357991637 -2.0808494283395125 0.3732300765156453
H 4.028761642008363 0.35630157166048737 0.3064790765156453
H 2.7844776420083632 2.5032205716604876 0.33169507651564534
H 0.3028826420083631 2.4757585716604873 0.5730250765156453
O -1.9028003579916368 1.4305615716604874 0.8985930765156454
O 0.7737466420083632 -3.2259044283395126 0.10128607651564536
H 0.3546256420083631 -2.496052428339513 1.9029490765156454
H 0.6607856420083631 -3.014491428339513 -0.8289779234843547
29
Optimized merged molecule for atom pair (2, 10)
O -0.048827747917 -1.668351849157 -1.064392746309
H -0.566397102628 -1.432870928944 -1.847688801772
H -0.106020186854 -2.642665655593 -0.893841024786
C -7.763846091893855 -3.6133687927260913 -0.5908775510458981
C -6.382170091893855 -3.6325267927260914 -0.4780335510458982
C -5.667506091893854 -2.4419527927260916 -0.3458215510458982
C -6.361801091893854 -1.2302427927260915 -0.3265765510458981
C -7.755114091893855 -1.2186157927260914 -0.43110355104589815
C -8.455661091893854 -2.403741792726091 -0.5625575510458982
C -4.165729091893854 -2.5010417927260917 -0.15397555104589822
C -5.644880091893855 0.07182420727390859 -0.2344125510458982
C -4.159465091893854 0.03593720727390859 -0.33740055104589817
C -3.461505091893854 -1.1737697927260915 -0.34901755104589816
C -2.0729600918938544 -1.1558007927260914 -0.4810695510458982
H -1.5320770918938544 -2.0948607927260916 -0.4885585510458982
C -1.3947610918938542 0.04686720727390847 -0.6060705510458981
C -2.092612091893854 1.2533172072739085 -0.5913175510458981
C -3.4691070918938545 1.2449752072739086 -0.4565105510458982
H -8.307023091893855 -4.5458307927260915 -0.6971255510458982
H -5.842063091893854 -4.571852792726091 -0.4952105510458982
H -8.262759091893855 -0.26156079272609145 -0.41103055104589814
H -9.536208091893855 -2.3915827927260915 -0.6451045510458981
H -0.31554409189385435 0.045568207273908534 -0.7118555510458981
H -1.5598280918938543 2.192487207273909 -0.6866395510458981
H -4.041423091893854 2.1650252072739082 -0.4453095510458982
O -6.247106091893855 1.1198282072739085 -0.11974155104589812
O -3.5705590918938546 -3.5366377927260917 -0.9170485510458981
H -3.989680091893854 -2.8067857927260915 0.8846144489541019
H -3.6835200918938544 -3.3252247927260914 -1.8473125510458983
29
Optimized merged molecule for atom pair (2, 4)
O -0.048827747917 -1.668351849157 -1.064392746309
H -0.566397102628 -1.432870928944 -1.847688801772
H -0.106020186854 -2.642665655593 -0.893841024786
C -2.1293465906726716 -6.51263278500669 -1.1767111680265607
C -0.747670590672671 -6.53179078500669 -1.0638671680265608
C -0.0330065906726702 -5.34121678500669 -0.9316551680265607
C -0.7273015906726705 -4.12950678500669 -0.9124101680265606
C -2.1206145906726714 -4.11787978500669 -1.0169371680265606
C -2.82116159067267 -5.30300578500669 -1.1483911680265608
C 1.4687704093273295 -5.40030578500669 -0.7398091680265607
C -0.010380590672671275 -2.82743978500669 -0.8202461680265607
C 1.4750344093273293 -2.8633267850066897 -0.9232341680265607
C 2.1729944093273295 -4.0730337850066896 -0.9348511680265607
C 3.561539409327329 -4.05506478500669 -1.0669031680265606
H 4.102422409327329 -4.99412478500669 -1.0743921680265607
C 4.239738409327329 -2.85239678500669 -1.1919041680265607
C 3.5418874093273294 -1.64594678500669 -1.1771511680265605
C 2.165392409327329 -1.6542887850066899 -1.0423441680265606
H -2.6725235906726716 -7.44509478500669 -1.2829591680265606
H -0.20756359067267027 -7.471116785006689 -1.0810441680265606
H -2.6282595906726716 -3.1608247850066897 -0.9968641680265606
H -3.901708590672671 -5.29084678500669 -1.2309381680265608
H 5.318955409327329 -2.85369578500669 -1.2976891680265608
H 4.07467140932733 -0.7067767850066895 -1.2724731680265606
H 1.5930764093273293 -0.7342387850066903 -1.0311431680265608
O -0.6126065906726712 -1.77943578500669 -0.7055751680265606
O 2.063940409327329 -6.43590178500669 -1.5028821680265607
H 1.6448194093273294 -5.70604978500669 0.2987808319734394
H 1.9509794093273292 -6.22448878500669 -2.433146168026561
29
Optimized merged molecule for atom pair (2, 14)
O -0.048827747917 -1.668351849157 -1.064392746309
H -0.566397102628 -1.432870928944 -1.847688801772
H -0.106020186854 -2.642665655593 -0.893841024786
C -2.2147090970487473 -8.713699335297958 -1.0043596370097028
C -0.8330330970487467 -8.732857335297957 -0.8915156370097027
C -0.11836909704874587 -7.542283335297959 -0.7593036370097026
C -0.8126640970487462 -6.3305733352979585 -0.7400586370097025
C -2.205977097048747 -6.318946335297959 -0.8445856370097026
C -2.9065240970487456 -7.504072335297958 -0.9760396370097028
C 1.3834079029512538 -7.601372335297959 -0.5674576370097026
C -0.09574309704874695 -5.028506335297958 -0.6478946370097026
C 1.3896719029512536 -5.064393335297958 -0.7508826370097026
C 2.087631902951254 -6.274100335297958 -0.7624996370097026
C 3.4761769029512535 -6.256131335297958 -0.8945516370097025
H 4.017059902951253 -7.195191335297959 -0.9020406370097026
C 4.154375902951253 -5.053463335297959 -1.0195526370097028
C 3.4565249029512537 -3.8470133352979587 -1.0047996370097025
C 2.0800299029512535 -3.8553553352979586 -0.8699926370097025
H -2.7578860970487473 -9.646161335297958 -1.1106076370097027
H -0.29292609704874595 -9.672183335297959 -0.9086926370097025
H -2.7136220970487472 -5.361891335297958 -0.8245126370097026
H -3.9870710970487466 -7.4919133352979586 -1.0585866370097028
H 5.233592902951253 -5.0547623352979585 -1.1253376370097028
H 3.989308902951254 -2.907843335297958 -1.1001216370097024
H 1.5077139029512536 -2.935305335297959 -0.8587916370097027
O -0.6979690970487469 -3.9805023352979587 -0.5332236370097025
O 1.9785779029512534 -8.636968335297958 -1.3305306370097028
H 1.5594569029512537 -7.9071163352979585 0.4711323629902975
H 1.8656169029512535 -8.425555335297958 -2.260794637009703
29
Optimized merged molecule for atom pair (2, 5)
O -0.048827747917 -1.668351849157 -1.064392746309
H -0.566397102628 -1.432870928944 -1.847688801772
H -0.106020186854 -2.642665655593 -0.893841024786
C 1.7094225924291595 -3.9077016172113677 -3.154735874728453
C 3.09109859242916 -3.926859617211367 -3.041891874728453
C 3.805762592429161 -2.736285617211368 -2.909679874728453
C 3.1114675924291606 -1.5245756172113678 -2.8904348747284527
C 1.7181545924291597 -1.512948617211368 -2.9949618747284528
C 1.0176075924291612 -2.6980746172113674 -3.126415874728453
C 5.30753959242916 -2.795374617211368 -2.717833874728453
C 3.82838859242916 -0.22250861721136772 -2.798270874728453
C 5.31380359242916 -0.2583956172113675 -2.9012588747284527
C 6.01176359242916 -1.4681026172113674 -2.912875874728453
C 7.400308592429161 -1.4501336172113675 -3.0449278747284527
H 7.94119159242916 -2.389193617211368 -3.052416874728453
C 8.07850759242916 -0.24746561721136828 -3.169928874728453
C 7.38065659242916 0.958984382788632 -3.1551758747284526
C 6.00416159242916 0.9506423827886321 -3.0203688747284527
H 1.1662455924291595 -4.840163617211367 -3.2609838747284527
H 3.631205592429161 -4.866185617211368 -3.0590688747284527
H 1.2105095924291596 -0.5558936172113675 -2.9748888747284528
H -0.06293940757083982 -2.685915617211368 -3.208962874728453
H 9.15772459242916 -0.24876461721136778 -3.275713874728453
H 7.913440592429161 1.8981543827886327 -3.2504978747284525
H 5.431845592429161 1.870692382788632 -3.009167874728453
O 3.22616259242916 0.825495382788632 -2.6835998747284524
O 5.90270959242916 -3.830970617211367 -3.480906874728453
H 5.483588592429161 -3.101118617211368 -1.6792438747284526
H 5.78974859242916 -3.619557617211367 -4.4111708747284535
29
Optimized merged molecule for atom pair (2, 13)
O -0.048827747917 -1.668351849157 -1.064392746309
H -0.566397102628 -1.432870928944 -1.847688801772
H -0.106020186854 -2.642665655593 -0.893841024786
C -5.637867777304104 -6.986828366555684 -3.334208440631506
C -4.256191777304103 -7.005986366555683 -3.221364440631506
C -3.541527777304102 -5.815412366555684 -3.089152440631506
C -4.235822777304103 -4.603702366555684 -3.0699074406315057
C -5.6291357773041035 -4.592075366555684 -3.1744344406315057
C -6.329682777304102 -5.777201366555683 -3.305888440631506
C -2.0397507773041026 -5.874501366555684 -2.897306440631506
C -3.518901777304103 -3.3016353665556837 -2.9777434406315058
C -2.0334867773041028 -3.3375223665556835 -3.0807314406315056
C -1.3355267773041026 -4.547229366555683 -3.092348440631506
C 0.053018222695897954 -4.529260366555683 -3.2244004406315057
H 0.5939012226958971 -5.468320366555684 -3.2318894406315057
C 0.7312172226958973 -3.3265923665556842 -3.349401440631506
C 0.033366222695897285 -2.120142366555684 -3.3346484406315056
C -1.343128777304103 -2.128484366555684 -3.1998414406315057
H -6.181044777304104 -7.919290366555683 -3.4404564406315057
H -3.716084777304102 -7.945312366555684 -3.2385414406315056
H -6.136780777304104 -3.6350203665556835 -3.1543614406315057
H -7.410229777304103 -5.765042366555684 -3.388435440631506
H 1.8104342226958972 -3.3278913665556837 -3.455186440631506
H 0.5661502226958985 -1.1809723665556833 -3.4299704406315055
H -1.915444777304102 -1.208434366555684 -3.188640440631506
O -4.121127777304103 -2.253631366555684 -2.8630724406315053
O -1.444580777304103 -6.910097366555683 -3.6603794406315058
H -1.8637017773041018 -6.180245366555684 -1.8587164406315055
H -1.5575417773041025 -6.698684366555683 -4.590643440631506
29
Optimized merged molecule for atom pair (2, 2)
O -0.048827747917 -1.668351849157 -1.064392746309
H -0.566397102628 -1.432870928944 -1.847688801772
H -0.106020186854 -2.642665655593 -0.893841024786
C -1.192621465946167 -2.9083524500485014 -3.2389166251048023
C 0.18905453405383366 -2.9275104500485005 -3.1260726251048023
C 0.903718534053835 -1.7369364500485016 -2.9938606251048023
C 0.20942353405383418 -0.5252264500485015 -2.974615625104802
C -1.1838894659461667 -0.5135994500485017 -3.079142625104802
C -1.8844364659461652 -1.6987254500485012 -3.2105966251048024
C 2.405495534053834 -1.7960254500485018 -2.8020146251048024
C 0.9263445340538339 0.7768405499514985 -2.8824516251048022
C 2.411759534053834 0.7409535499514988 -2.985439625104802
C 3.109719534053834 -0.4687534500485011 -2.9970566251048023
C 4.498264534053835 -0.4507844500485012 -3.129108625104802
H 5.039147534053834 -1.3898444500485017 -3.1365976251048022
C 5.176463534053834 0.751883549951498 -3.2541096251048023
C 4.478612534053834 1.9583335499514982 -3.239356625104802
C 3.102117534053834 1.9499915499514984 -3.104549625104802
H -1.735798465946167 -3.8408144500485006 -3.345164625104802
H 0.7291615340538349 -3.8668364500485017 -3.143249625104802
H -1.6915344659461669 0.4434555499514987 -3.059069625104802
H -2.9649834659461662 -1.6865664500485016 -3.2931436251048023
H 6.255680534053834 0.7505845499514985 -3.3598946251048023
H 5.011396534053835 2.897503549951499 -3.334678625104802
H 2.529801534053835 2.870041549951498 -3.0933486251048024
O 0.3241185340538335 1.8248445499514983 -2.767780625104802
O 3.0006655340538337 -2.831621450048501 -3.5650876251048023
H 2.581544534053835 -2.1017694500485016 -1.763424625104802
H 2.8877045340538343 -2.6202084500485006 -4.495351625104803
29
Optimized merged molecule for atom pair (2, 9)
O -0.048827747917 -1.668351849157 -1.064392746309
H -0.566397102628 -1.432870928944 -1.847688801772
H -0.106020186854 -2.642665655593 -0.893841024786
C -5.09251047101537 -4.444829297919222 -3.4542384779596143
C -3.7108344710153687 -4.463987297919221 -3.3413944779596143
C -2.9961704710153674 -3.2734132979192223 -3.2091824779596143
C -3.690465471015368 -2.0617032979192222 -3.189937477959614
C -5.0837784710153695 -2.0500762979192224 -3.294464477959614
C -5.784325471015368 -3.235202297919222 -3.4259184779596143
C -1.4943934710153681 -3.3325022979192225 -3.0173364779596143
C -2.9735444710153685 -0.7596362979192222 -3.097773477959614
C -1.4881294710153683 -0.7955232979192219 -3.200761477959614
C -0.7901694710153682 -2.005230297919222 -3.2123784779596143
C 0.5983755289846324 -1.987261297919222 -3.344430477959614
H 1.1392585289846315 -2.9263212979192224 -3.351919477959614
C 1.2765745289846318 -0.7845932979192227 -3.4694314779596143
C 0.5787235289846318 0.4218567020807775 -3.454678477959614
C -0.7977714710153685 0.4135147020807777 -3.319871477959614
H -5.63568747101537 -5.377291297919221 -3.560486477959614
H -3.1707274710153674 -5.403313297919222 -3.358571477959614
H -5.59142347101537 -1.093021297919222 -3.274391477959614
H -6.864872471015369 -3.2230432979192223 -3.5084654779596143
H 2.3557915289846316 -0.7858922979192222 -3.5752164779596143
H 1.111507528984633 1.3610267020807783 -3.550000477959614
H -1.3700874710153674 1.3335647020807775 -3.3086704779596143
O -3.575770471015369 0.28836770208077755 -2.983102477959614
O -0.8992234710153686 -4.3680982979192216 -3.7804094779596142
H -1.3183444710153673 -3.6382462979192223 -1.978746477959614
H -1.012184471015368 -4.156685297919221 -4.710673477959615
29
Optimized merged molecule for atom pair (2, 24)
O -0.048827747917 -1.668351849157 -1.064392746309
H -0.566397102628 -1.432870928944 -1.847688801772
H -0.106020186854 -2.642665655593 -0.893841024786
C -2.913030279425981 -4.504699013883454 -4.418877850329378
C -1.53135427942598 -4.523857013883453 -4.306033850329378
C -0.8166902794259787 -3.333283013883454 -4.173821850329378
C -1.5109852794259795 -2.121573013883454 -4.154576850329377
C -2.904298279425981 -2.1099460138834543 -4.259103850329377
C -3.6048452794259793 -3.2950720138834537 -4.390557850329378
C 0.6850867205740205 -3.3923720138834543 -3.981975850329378
C -0.7940642794259798 -0.819506013883454 -4.062412850329378
C 0.6913507205740204 -0.8553930138834538 -4.165400850329378
C 1.3893107205740205 -2.0651000138834537 -4.177017850329378
C 2.777855720574021 -2.0471310138834538 -4.309069850329378
H 3.31873872057402 -2.986191013883454 -4.316558850329377
C 3.4560547205740204 -0.8444630138834546 -4.434070850329378
C 2.7582037205740204 0.3619869861165457 -4.419317850329377
C 1.3817087205740202 0.3536449861165458 -4.284510850329378
H -3.456207279425981 -5.437161013883453 -4.525125850329378
H -0.9912472794259788 -5.463183013883454 -4.323210850329377
H -3.411943279425981 -1.1528910138834538 -4.239030850329377
H -4.68539227942598 -3.282913013883454 -4.473104850329378
H 4.53527172057402 -0.8457620138834541 -4.539855850329378
H 3.2909877205740217 1.3011569861165464 -4.514639850329377
H 0.8093927205740212 1.2736949861165456 -4.273309850329378
O -1.3962902794259802 0.2284979861165457 -3.9477418503293773
O 1.28025672057402 -4.427968013883453 -4.745048850329377
H 0.8611357205740213 -3.698116013883454 -2.9433858503293773
H 1.1672957205740206 -4.216555013883453 -5.675312850329378
29
Optimized merged molecule for atom pair (2, 6)
O -0.048827747917 -1.668351849157 -1.064392746309
H -0.566397102628 -1.432870928944 -1.847688801772
H -0.106020186854 -2.642665655593 -0.893841024786
C -3.1954553184436865 -5.73460599604493 0.10883114108922154
C -1.8137793184436855 -5.753763996044929 0.22167514108922148
C -1.0991153184436842 -4.5631899960449305 0.3538871410892215
C -1.793410318443685 -3.3514799960449304 0.3731321410892221
C -3.1867233184436863 -3.3398529960449306 0.26860514108922207
C -3.8872703184436848 -4.52497899604493 0.13715114108922144
C 0.40266168155631515 -4.622278996044931 0.5457331410892214
C -1.0764893184436852 -2.0494129960449303 0.46529614108922157
C 0.408925681556315 -2.08529999604493 0.3623081410892217
C 1.106885681556315 -3.29500699604493 0.3506911410892215
C 2.4954306815563156 -3.27703799604493 0.21863914108922167
H 3.0363136815563148 -4.2160979960449305 0.21115014108922203
C 3.173629681556315 -2.074369996044931 0.09363814108922153
C 2.475778681556315 -0.8679199960449306 0.10839114108922221
C 1.0992836815563147 -0.8762619960449305 0.24319814108922166
H -3.7386323184436865 -6.6670679960449295 0.002583141089221641
H -1.2736723184436842 -6.693089996044931 0.20449814108922215
H -3.6943683184436864 -2.38279799604493 0.2886781410892221
H -4.967817318443686 -4.5128199960449304 0.054604141089221514
H 4.252846681556314 -2.0756689960449304 -0.01214685891077849
H 3.0085626815563162 0.07125000395507008 0.013069141089221858
H 0.5269676815563158 0.04378800395506932 0.25439914108922146
O -1.6787153184436856 -1.0014089960449306 0.579967141089222
O 0.9978316815563146 -5.65787499604493 -0.217339858910778
H 0.5787106815563159 -4.92802299604493 1.584323141089222
H 0.8848706815563152 -5.446461996044929 -1.147603858910779
29
Optimized merged molecule for atom pair (2, 16)
O -0.048827747917 -1.668351849157 -1.064392746309
H -0.566397102628 -1.432870928944 -1.847688801772
H -0.106020186854 -2.642665655593 -0.893841024786
C 0.05531588255604092 -0.5232585400835017 -0.239259757519788
C 1.436991882556042 -0.5424165400835008 -0.12641575751978806
C 2.1516558825560432 0.6481574599164981 0.005796242480211933
C 1.4573608825560425 1.8598674599164982 0.025041242480212555
C 0.0640478825560411 1.871494459916498 -0.07948575751978748
C -0.6364991174439574 0.6863684599164985 -0.2109397575197881
C 3.6534328825560425 0.5890684599164979 0.1976422424802119
C 2.174281882556042 3.1619344599164982 0.11720524248021202
C 3.6596968825560423 3.1260474599164985 0.014217242480212167
C 4.357656882556043 1.9163404599164986 0.002600242480211956
C 5.7462018825560435 1.9343094599164985 -0.12945175751978788
H 6.287084882556043 0.995249459916498 -0.13694075751978751
C 6.424400882556043 3.1369774599164977 -0.254452757519788
C 5.726549882556043 4.343427459916498 -0.23969975751978734
C 4.350054882556043 4.335085459916498 -0.10489275751978788
H -0.4878611174439591 -1.455720540083501 -0.3455077575197879
H 1.9770988825560432 -1.481742540083502 -0.1435927575197874
H -0.443597117443959 2.8285494599164984 -0.059412757519787474
H -1.7170461174439584 0.6985274599164981 -0.29348675751978803
H 7.503617882556042 3.135678459916498 -0.36023775751978804
H 6.259333882556044 5.282597459916499 -0.3350217575197877
H 3.777738882556043 5.255135459916498 -0.09369175751978809
O 1.5720558825560418 4.209938459916498 0.23187624248021244
O 4.2486028825560425 -0.44652754008350115 -0.5654307575197876
H 3.8294818825560433 0.28332445991649813 1.2362322424802126
H 4.135641882556042 -0.23511454008350086 -1.4956947575197885
29
Optimized merged molecule for atom pair (2, 11)
O -0.048827747917 -1.668351849157 -1.064392746309
H -0.566397102628 -1.432870928944 -1.847688801772
H -0.106020186854 -2.642665655593 -0.893841024786
C -5.392251350720326 -2.347222790163749 -2.4333588482784636
C -4.010575350720325 -2.366380790163748 -2.3205148482784637
C -3.2959113507203233 -1.1758067901637494 -2.1883028482784637
C -3.990206350720324 0.035903209836250616 -2.169057848278463
C -5.383519350720325 0.04753020983625045 -2.273584848278463
C -6.084066350720324 -1.137595790163749 -2.4050388482784637
C -1.794134350720324 -1.2348957901637496 -1.9964568482784637
C -3.2732853507203243 1.3379702098362507 -2.0768938482784636
C -1.7878703507203242 1.302083209836251 -2.1798818482784634
C -1.0899103507203236 0.09237620983625106 -2.1914988482784636
C 0.298634649279677 0.11034520983625096 -2.3235508482784635
H 0.8395176492796761 -0.8287147901637495 -2.331039848278463
C 0.9768336492796763 1.3130132098362501 -2.4485518482784636
C 0.2789826492796763 2.5194632098362506 -2.433798848278463
C -1.097512350720324 2.5111212098362508 -2.2989918482784635
H -5.935428350720326 -3.2796847901637483 -2.5396068482784635
H -3.4704683507203233 -3.3057067901637494 -2.337691848278463
H -5.8911643507203255 1.0045852098362509 -2.253511848278463
H -7.164613350720325 -1.1254367901637494 -2.4875858482784636
H 2.0560506492796753 1.3117142098362506 -2.5543368482784636
H 0.8117666492796776 3.4586332098362513 -2.5291208482784633
H -1.6698283507203233 3.4311712098362506 -2.2877908482784637
O -3.8755113507203247 2.3859742098362506 -1.9622228482784632
O -1.198964350720324 -2.2704917901637485 -2.759529848278463
H -1.6180853507203232 -1.5406397901637494 -0.9578668482784631
H -1.3119253507203243 -2.059078790163748 -3.6897938482784642
29
Optimized merged molecule for atom pair (2, 18)
O -0.048827747917 -1.668351849157 -1.064392746309
H -0.566397102628 -1.432870928944 -1.847688801772
H -0.106020186854 -2.642665655593 -0.893841024786
C 1.5576850230020511 -3.706920564741317 -3.3322787951413506
C 2.9393610230020517 -3.726078564741316 -3.2194347951413507
C 3.6540250230020535 -2.5355045647413177 -3.0872227951413507
C 2.9597300230020527 -1.3237945647413176 -3.06797779514135
C 1.5664170230020513 -1.3121675647413178 -3.17250479514135
C 0.8658700230020528 -2.4972935647413173 -3.3039587951413507
C 5.155802023002053 -2.594593564741318 -2.8953767951413507
C 3.6766510230020524 -0.02172756474131754 -2.9758137951413506
C 5.162066023002053 -0.05761456474131732 -3.0788017951413504
C 5.860026023002053 -1.2673215647413172 -3.0904187951413506
C 7.248571023002054 -1.2493525647413173 -3.2224707951413505
H 7.789454023002053 -2.1884125647413177 -3.22995979514135
C 7.926770023002053 -0.0466845647413181 -3.3474717951413506
C 7.228919023002053 1.1597654352586824 -3.33271879514135
C 5.852424023002053 1.1514234352586825 -3.1979117951413505
H 1.0145080230020511 -4.639382564741316 -3.4385267951413505
H 3.4794680230020534 -4.665404564741317 -3.23661179514135
H 1.0587720230020512 -0.35511256474131736 -3.15243179514135
H -0.2146769769979482 -2.4851345647413177 -3.3865057951413506
H 9.005987023002053 -0.0479835647413176 -3.4532567951413506
H 7.761703023002054 2.0989354352586833 -3.4280407951413503
H 5.280108023002054 2.0714734352586825 -3.1867107951413507
O 3.074425023002052 1.0262764352586824 -2.86114279514135
O 5.750972023002053 -3.6301895647413165 -3.65844979514135
H 5.331851023002054 -2.9003375647413177 -1.8567867951413501
H 5.638011023002052 -3.418776564741316 -4.588713795141351
