29
Properties=species:S:1:pos:R:3 pbc="F F F"
C       -4.71872100      -2.06705700      -0.23364000
C       -3.33704500      -2.08621500      -0.12079600
C       -2.62238100      -0.89564100       0.01141600
C       -3.31667600       0.31606900       0.03066100
C       -4.70998900       0.32769600      -0.07386600
C       -5.41053600      -0.85743000      -0.20532000
C       -1.12060400      -0.95473000       0.20326200
C       -2.59975500       1.61813600       0.12282500
C       -1.11434000       1.58224900       0.01983700
C       -0.41638000       0.37254200       0.00822000
C        0.97216500       0.39051100      -0.12383200
H        1.51304800      -0.54854900      -0.13132100
C        1.65036400       1.59317900      -0.24883300
C        0.95251300       2.79962900      -0.23408000
C       -0.42398200       2.79128700      -0.09927300
H       -5.26189800      -2.99951900      -0.33988800
H       -2.79693800      -3.02554100      -0.13797300
H       -5.21763400       1.28475100      -0.05379300
H       -6.49108300      -0.84527100      -0.28786700
H        2.72958100       1.59188000      -0.35461800
H        1.48529700       3.73879900      -0.32940200
H       -0.99629800       3.71133700      -0.08807200
O       -3.20198100       2.66614000       0.23749600
O       -0.52543400      -1.99032600      -0.55981100
H       -0.94455500      -1.26047400       1.24185200
H       -0.63839500      -1.77891300      -1.49007500
O        2.99436562      -1.99032600      -4.11100948
H        2.47679626      -1.75484508      -4.89430553
H        2.93717318      -2.96463981      -3.94045776
